c Random 6-CNF over 20 variables and 100 clauses
c Generated with `cnfgen`
c (C) 2012-2016 Massimo Lauria <lauria.massimo@gmail.com>
c https://massimolauria.github.io/cnfgen
c
c COMMAND LINE: cnfgen --output tmp-6-20-100.dimacs --output-format dimacs randkcnf 6 20 100
c
c sdimacs generated by gen-sdimacs
c
p cnf 20 100
e 11 12 13 14 15 16 17 18 19 20 0
r 0.37 1 2 3 4 5 6 7 8 9 10 0
-2 3 -8 16 -17 18 0
3 -6 -7 12 -18 -19 0
-1 11 12 13 18 20 0
-1 2 -7 11 14 -19 0
1 2 9 11 16 -18 0
-3 -4 6 13 17 -18 0
-5 -6 -8 -14 16 20 0
2 -3 4 7 16 -19 0
1 -6 10 12 13 19 0
-8 9 10 -11 14 -17 0
-1 -5 -16 17 19 -20 0
6 -7 8 -10 15 -19 0
-3 -4 9 -13 -17 19 0
-1 3 7 8 -9 -14 0
2 5 9 10 -16 -18 0
1 7 9 -12 14 -15 0
-1 2 3 9 12 15 0
-3 -5 -11 15 -18 -20 0
2 -7 -9 -12 13 20 0
-8 10 -12 -13 -15 -16 0
-1 -4 -8 -12 14 -15 0
-2 6 -7 10 11 16 0
3 -5 7 -9 -12 17 0
-5 6 8 13 16 -18 0
2 3 -5 -6 -7 -10 0
1 3 -6 -9 14 -15 0
2 -7 8 15 18 -20 0
4 -8 -11 -13 16 -19 0
3 -4 6 9 -11 18 0
-7 -9 11 -12 17 -20 0
-7 8 13 -14 -19 20 0
2 -6 -9 -11 13 17 0
-6 8 -9 -10 -15 -17 0
1 -4 5 -10 12 -20 0
-5 -10 15 -16 17 -19 0
4 10 13 -14 15 16 0
3 6 -12 -13 -14 17 0
-1 -4 7 -8 12 -16 0
-2 -3 5 -13 -16 -20 0
-4 -6 7 -11 14 16 0
2 3 5 9 13 -16 0
-2 5 7 -10 11 15 0
-2 -4 -6 -9 10 -16 0
4 -5 6 10 12 17 0
3 -4 6 8 -16 17 0
2 -4 -9 -15 -17 20 0
4 -7 -8 -10 -13 -18 0
1 5 8 9 14 -16 0
1 6 7 12 17 -18 0
-4 -5 -11 -16 -17 19 0
5 7 -14 -17 -18 -20 0
-2 -8 12 13 15 18 0
-1 -2 -5 -14 -16 -20 0
-9 10 12 17 18 -20 0
-6 9 11 -13 14 20 0
-1 -6 8 -9 -13 16 0
-1 -3 -4 -8 -9 -10 0
1 -15 16 18 -19 -20 0
4 -5 -9 11 12 -19 0
1 3 6 -7 -10 18 0
-1 -3 8 -13 19 -20 0
5 -9 -10 15 19 20 0
-1 4 8 9 -11 14 0
1 12 -15 -17 18 -20 0
-8 12 -13 -15 -17 -18 0
-2 -6 -10 -13 18 -20 0
-3 6 -7 -13 -15 19 0
-5 -7 8 -9 -11 -20 0
-6 9 -10 12 13 17 0
4 8 -12 -14 17 -18 0
-1 -3 6 -10 -11 -19 0
-2 3 14 -15 -16 -20 0
1 -2 -4 5 -9 20 0
1 3 8 9 10 -13 0
2 -4 -12 13 15 16 0
-2 6 7 9 -10 -19 0
6 -9 10 -15 -16 19 0
-3 5 -6 9 12 13 0
1 -3 6 8 10 11 0
-2 3 -4 -6 13 17 0
3 -6 -7 -11 15 -20 0
4 -6 9 14 18 19 0
-2 7 9 11 13 15 0
1 3 12 15 -16 20 0
-5 9 -12 13 14 -16 0
-1 2 -5 -16 18 19 0
2 10 -11 12 13 -20 0
2 -7 13 -14 16 -19 0
-4 -6 -12 15 17 18 0
-1 -6 12 16 -19 -20 0
-1 4 6 -12 -14 16 0
4 6 -7 -10 -16 -19 0
-4 -11 14 -17 -18 -20 0
-1 -4 5 9 -18 19 0
-1 -3 5 -13 -17 18 0
-4 5 9 13 -14 -20 0
2 4 -5 -9 -11 18 0
1 7 8 11 -18 20 0
3 -4 -9 17 -18 19 0
-3 5 6 -13 -15 17 0
